%%%mzn-stat: initTime=0.030585829
%%%mzn-stat: objective=281
%%%mzn-stat: nodes=805693
%%%mzn-stat: restarts=617
%%%mzn-stat: peakDepth=1048
%%%mzn-stat: solveTime=251.318245058
%%%mzn-stat: variables=2505
%%%mzn-stat: propagators=2061
%%%mzn-stat: failures=363645
%%%mzn-stat: propagations=37529794
%%%mzn-stat: nogoods=363645
%%%mzn-stat: AverageConflictSize=59.29601671960291
%%%mzn-stat: NumUnitNogoodsLearned=171
%%%mzn-stat: AverageLearnedNogoodLength=86.00349516698978
%%%mzn-stat: AverageBacktrackAmount=0
%%%mzn-stat: AverageLbd=37.10485775962821
%%%mzn-stat-end
maxleg = 281;
succ = array1d(1..100,[49, 68, 55, 35, 77, 58, 13, 57, 30, 9, 71, 28, 88, 48, 82, 66, 3, 2, 74, 8, 86, 29, 93, 42, 23, 84, 39, 90, 87, 62, 33, 63, 44, 19, 60, 73, 22, 11, 81, 7, 12, 14, 52, 69, 32, 6, 43, 97, 100, 51, 79, 50, 1, 20, 41, 16, 15, 98, 24, 5, 56, 25, 36, 40, 31, 4, 65, 53, 21, 26, 59, 34, 37, 64, 92, 89, 95, 83, 61, 10, 85, 67, 38, 78, 17, 75, 96, 80, 94, 72, 54, 46, 18, 99, 70, 91, 76, 27, 45, 47]);
% time elapsed: 251.82 s
----------
%%%mzn-stat: initTime=0.030585829
%%%mzn-stat: objective=234
%%%mzn-stat: nodes=807655
%%%mzn-stat: restarts=619
%%%mzn-stat: peakDepth=1048
%%%mzn-stat: solveTime=251.531504164
%%%mzn-stat: variables=2505
%%%mzn-stat: propagators=2061
%%%mzn-stat: failures=363754
%%%mzn-stat: propagations=37550775
%%%mzn-stat: nogoods=363754
%%%mzn-stat: AverageConflictSize=59.2976682043359
%%%mzn-stat: NumUnitNogoodsLearned=171
%%%mzn-stat: AverageLearnedNogoodLength=86.00721366637893
%%%mzn-stat: AverageBacktrackAmount=0
%%%mzn-stat: AverageLbd=37.107437993809
%%%mzn-stat-end
maxleg = 234;
succ = array1d(1..100,[49, 68, 55, 35, 79, 58, 13, 57, 30, 9, 71, 28, 88, 48, 82, 66, 3, 2, 74, 8, 86, 29, 93, 42, 23, 84, 39, 90, 87, 62, 33, 63, 44, 19, 50, 73, 22, 11, 81, 7, 12, 14, 52, 69, 32, 6, 95, 97, 100, 51, 47, 16, 1, 20, 41, 43, 15, 98, 24, 5, 56, 25, 36, 40, 31, 4, 65, 53, 21, 26, 59, 34, 37, 64, 92, 89, 60, 83, 61, 10, 85, 67, 38, 78, 17, 75, 96, 80, 94, 72, 54, 46, 18, 99, 70, 91, 76, 27, 45, 77]);
% time elapsed: 252.02 s
----------
%%%mzn-stat: initTime=0.030585829
%%%mzn-stat: objective=183
%%%mzn-stat: nodes=812320
%%%mzn-stat: restarts=630
%%%mzn-stat: peakDepth=1048
%%%mzn-stat: solveTime=252.442406953
%%%mzn-stat: variables=2505
%%%mzn-stat: propagators=2061
%%%mzn-stat: failures=364544
%%%mzn-stat: propagations=37763128
%%%mzn-stat: nogoods=364544
%%%mzn-stat: AverageConflictSize=59.30950447682584
%%%mzn-stat: NumUnitNogoodsLearned=171
%%%mzn-stat: AverageLearnedNogoodLength=86.02935173806179
%%%mzn-stat: AverageBacktrackAmount=0
%%%mzn-stat: AverageLbd=37.1331910551264
%%%mzn-stat-end
maxleg = 183;
succ = array1d(1..100,[53, 62, 55, 66, 79, 58, 13, 57, 93, 9, 71, 28, 88, 48, 82, 4, 68, 2, 74, 8, 86, 29, 78, 42, 23, 70, 39, 90, 87, 84, 33, 63, 44, 19, 50, 73, 22, 11, 81, 7, 12, 14, 35, 69, 32, 6, 77, 97, 100, 51, 52, 16, 3, 20, 41, 43, 15, 98, 24, 5, 56, 25, 36, 40, 31, 85, 65, 18, 21, 95, 59, 34, 37, 64, 92, 89, 60, 83, 61, 10, 1, 67, 38, 26, 17, 75, 96, 80, 94, 72, 54, 46, 30, 99, 49, 91, 76, 27, 45, 47]);
% time elapsed: 252.94 s
----------
%%%mzn-stat: initTime=0.030585829
%%%mzn-stat: objective=183
%%%mzn-stat: nodes=4103315
%%%mzn-stat: restarts=700
%%%mzn-stat: peakDepth=1048
%%%mzn-stat: solveTime=1799.708948004
%%%mzn-stat: variables=2505
%%%mzn-stat: propagators=2061
%%%mzn-stat: failures=3433858
%%%mzn-stat: propagations=209684573
%%%mzn-stat: nogoods=3433858
%%%mzn-stat: AverageConflictSize=21.71262061506329
%%%mzn-stat: NumUnitNogoodsLearned=171
%%%mzn-stat: AverageLearnedNogoodLength=46.1485128389118
%%%mzn-stat: AverageBacktrackAmount=0
%%%mzn-stat: AverageLbd=15.616521708236043
%%%mzn-stat-end
